750
750
525
525
525
524
524
524
523
522
522
522
521
520
520
519
519
518
518
518
518
517
517
516
516
516
515
515
515
515
515
514
514
513
513
513
511
510
510
510
509
509
507
507
505
503
503
503
502
502
501
501
501
500
499
499
498
497
497
497
497
496
495
495
495
495
494
494
494
494
494
493
492
491
491
489
489
489
488
488
488
487
486
485
485
484
483
483
481
481
480
480
477
477
477
476
475
475
474
473
473
472
472
472
472
472
471
471
471
470
470
470
469
468
468
468
468
466
466
466
465
465
465
464
464
464
464
463
463
463
463
463
462
461
460
460
459
459
459
458
458
458
457
457
457
455
455
455
455
454
454
453
452
451
449
448
448
447
445
445
444
444
444
443
443
443
443
442
442
442
441
440
440
440
439
438
438
438
438
437
437
436
436
436
436
435
434
434
434
433
433
433
432
431
430
429
429
428
428
427
427
426
426
425
425
424
424
424
424
424
424
423
422
421
420
419
419
419
419
419
418
418
417
417
417
416
415
414
413
413
412
411
410
409
408
408
407
406
406
406
406
406
406
405
405
404
404
403
403
403
402
402
402
402
401
401
401
401
400
400
399
398
397
397
397
397
396
396
396
395
395
394
393
392
391
391
391
390
388
388
388
387
387
386
386
385
385
385
385
384
383
383
382
382
382
381
381
381
379
379
378
376
376
374
374
373
372
371
370
369
368
367
367
367
366
366
365
365
365
365
365
365
365
364
364
364
363
362
361
361
359
358
358
358
358
358
357
357
356
355
354
354
354
352
352
352
352
352
351
351
351
350
349
349
348
348
348
347
347
344
344
344
344
343
343
342
342
342
341
341
341
340
340
340
340
337
337
336
335
334
334
333
333
333
333
332
332
331
331
330
330
329
328
328
326
325
324
324
324
324
323
322
322
321
320
319
318
317
317
316
316
315
315
315
314
314
313
313
313
312
312
311
311
311
311
310
310
309
308
308
307
307
306
305
305
305
304
303
302
302
302
302
302
301
301
301
301
301
300
300
299
299
298
298
298
298
297
296
295
294
294
294
294
293
292
292
292
291
291
290
289
289
288
287
287
287
287
286
286
286
286
285
285
284
284
282
282
282
282
281
281
281
281
281
281
280
280
280
279
279
278
278
278
277
277
276
276
276
276
275
275
274
274
273
272
271
270
270
270
269
269
268
267
266
266
265
265
264
264
264
260
260
260
260
259
259
259
258
258
257
257
255
254
253
253
252
252
252
252
251
251
250
250
249
249
248
248
248
248
248
248
247
246
246
245
243
241
241
240
239
239
239
238
237
237
237
237
235
234
234
233
232
231
231
231
231
231
231
230
230
229
229
228
228
228
227
226
226
226
225
225
224
224
221
221
220
219
218
218
218
218
217
216
215
215
214
214
213
213
213
213
212
212
211
211
211
210
209
209
209
208
208
207
206
206
205
204
203
203
202
202
202
202
202
202
201
201
201
200
200
200
199
198
197
197
196
196
194
194
194
193
193
193
193
192
192
192
192
190
190
189
189
189
189
188
188
188
187
187
187
187
186
185
185
185
184
184
183
182
180
180
179
179
179
178
177
176
176
175
174
174
174
172
171
171
171
171
170
170
169
169
169
169
168
168
166
166
165
164
164
162
161
161
161
160
160
160
159
159
159
159
158
158
156
156
156
155
155
154
154
154
153
153
152
152
152
151
150
150
150
150
150
